[ma. 03. april 15:08:51 +0200 2023]  ./input/alternate_g_np/50-1-3.gcc
Set parameter Username
Academic license - for non-commercial use only - expires 2024-03-28
Set parameter TimeLimit to value 1800
Set parameter PreCrush to value 1
Set parameter LazyConstraints to value 1
Gurobi Optimizer version 10.0.1 build v10.0.1rc0 (linux64)

CPU model: AMD Ryzen 9 5950X 16-Core Processor, instruction set [SSE2|AVX|AVX2]
Thread count: 16 physical cores, 32 logical processors, using up to 32 threads

Optimize a model with 52 rows, 150 columns and 350 nonzeros
Model fingerprint: 0x4e91784c
Variable types: 0 continuous, 150 integer (150 binary)
Coefficient statistics:
  Matrix range     [1e+00, 1e+00]
  Objective range  [1e+00, 1e+02]
  Bounds range     [1e+00, 1e+00]
  RHS range        [1e+00, 1e+00]
Presolve time: 0.00s
Presolved: 52 rows, 150 columns, 350 nonzeros
Variable types: 0 continuous, 150 integer (150 binary)

Root relaxation: objective 2.382000e+03, 2 iterations, 0.00 seconds (0.00 work units)

    Nodes    |    Current Node    |     Objective Bounds      |     Work
 Expl Unexpl |  Obj  Depth IntInf | Incumbent    BestBd   Gap | It/Node Time

     0     0 2382.00000    0    2          - 2382.00000      -     -    0s
     0     0 2382.00000    0    8          - 2382.00000      -     -    0s
     0     0 2382.00000    0    8          - 2382.00000      -     -    0s
     0     0 2382.00000    0    -          - 2382.00000      -     -    0s
     0     0 2382.00000    0   11          - 2382.00000      -     -    0s
     0     2 2382.00000    0    8          - 2382.00000      -     -    0s
*13414  4888              28     210.0000000 1608.66667   666%  10.5    1s
*13506  4931              33     231.0000000 1604.00000   594%  10.5    1s
*13772  5042              25     249.0000000 1600.00000   543%  10.6    1s
*14986  5422              33     253.0000000 1596.00000   531%  10.6    1s
H15834  5793                     264.0000000 1596.00000   505%  10.8    1s
*22571  7784              29     265.0000000 1499.00000   466%  12.4    2s
*24063  8168              29     356.0000000 1482.00000   316%  12.7    2s
*25403  8608              32     357.0000000 1466.00000   311%  13.1    2s
*25891  8919              35     366.0000000 1465.00000   300%  13.1    2s
*28237  9405              35     368.0000000 1443.00000   292%  13.6    2s
*29242  9474              29     369.0000000 1429.00000   287%  13.8    3s
*29955  9656              43     416.0000000 1422.00000   242%  14.0    3s
H30314  9236                     436.0000000 1084.43243   149%  14.0    3s
*38165  7665              65     453.0000000  592.50000  30.8%  14.1    4s
*39463  6286              57     456.0000000  543.00000  19.1%  14.0    4s

Cutting planes:
  User: 17
  Lazy constraints: 931

Explored 41153 nodes (565093 simplex iterations) in 4.70 seconds (2.12 work units)
Thread count was 32 (of 32 available processors)

Solution count 10: 456 453 436 ... 265

Optimal solution found (tolerance 1.00e-04)
Best objective 4.560000000000e+02, best bound 4.560000000000e+02, gap 0.0000%

User-callback calls 84417, time in user-callback 1.31 sec
Minimal separator inequalities added: 87891
Indegree inequalities added: 0
Passed solution check
[ma. 03. april 15:08:56 +0200 2023]  done

